AES/1_5_4/ssaes_r1-20_c5_rw1_e4_f0_k1-20_aes_canon_box_aes_mc_bidirectional/ExperimentMinisat_r8_k17cnf_2011-10-29-160149/Result
WARNING: for repeatability, setting FPU to use double precision
============================[ Problem Statistics ]=============================
|                                                                             |
|  Number of variables:          1532                                         |
|  Number of clauses:            8960                                         |
|  Parse time:                   0.00 s                                       |
|  Eliminated clauses:           0.01 Mb                                      |
|  Simplification time:          0.01 s                                       |
|                                                                             |
=============================[ Search Statistics ]==============================
| Conflicts  |          ORIGINAL         |          LEARNT          | Progress |
|            |    Vars  Clauses Literals |    Limit  Clauses Lit/Cl |          |
================================================================================
|        100 |    1232     8104    25136 |     2971      100     33 |  4.700 % |
|        250 |    1232     8104    25136 |     3268      250     35 |  4.700 % |
|        475 |    1232     8104    25136 |     3595      475     36 |  4.700 % |
|        812 |    1232     8104    25136 |     3955      812     38 |  4.700 % |
|       1318 |    1232     8104    25136 |     4350     1318     39 |  4.700 % |
|       2077 |    1232     8104    25136 |     4785     2077     40 |  4.700 % |
|       3216 |    1232     8104    25136 |     5264     3216     38 |  4.700 % |
|       4924 |    1232     8104    25136 |     5790     4924     39 |  4.700 % |
|       7486 |    1232     8104    25136 |     6369     4506     36 |  4.700 % |
|      11330 |    1232     8104    25136 |     7006     5033     35 |  4.700 % |
|      17096 |    1232     8104    25136 |     7707     3641     28 |  4.700 % |
|      25745 |    1232     8104    25136 |     8477     4457     32 |  4.700 % |
|      38719 |    1232     8104    25136 |     9325     8690     24 |  4.700 % |
|      58180 |    1232     8104    25136 |    10258     9072     25 |  4.700 % |
|      87372 |    1232     8104    25136 |    11284     6903     21 |  4.700 % |
|     131161 |    1232     8104    25136 |    12412    10589     22 |  4.700 % |
|     196845 |    1232     8104    25136 |    13653     6975     20 |  4.700 % |
|     295371 |    1232     8104    25136 |    15019     8516     19 |  4.700 % |
|     443160 |    1232     8104    25136 |    16521    11638     21 |  4.700 % |
|     664843 |    1232     8104    25136 |    18173    16129     21 |  4.700 % |
|     997368 |    1232     8104    25136 |    19990    18050     19 |  4.700 % |
|    1496156 |    1232     8104    25136 |    21989    12574     20 |  4.700 % |
|    2244338 |    1232     8104    25136 |    24188    17653     19 |  4.700 % |
|    3366612 |    1232     8104    25136 |    26607    18673     20 |  4.700 % |
===============================================================================
restarts              : 7287
conflicts             : 4133976        (15059 /sec)
decisions             : 4643424        (0.00 % random) (16914 /sec)
propagations          : 897335983      (3268671 /sec)
conflict literals     : 97042543       (56.14 % deleted)
Memory used           : 17.00 MB
CPU time              : 274.526 s

SATISFIABLE
